NAME : portcgen-20-1
COMMENT : portcgen N=20, seed=1
TYPE : TSP
DIMENSION : 20
EDGE_WEIGHT_TYPE : EUC_2D
NODE_COORD_SECTION
1 -150632 -307350
2 -109179 -128024
3 -48910 40695
4 -16818 -96789
5 -361486 107438
6 -147514 -235594
7 -308611 87054
8 200801 245799
9 251934 -128076
10 -132381 -136305
11 40736 106721
12 -126931 -38077
13 26186 -8020
14 -262612 400447
15 -82510 75792
16 -110187 -1324
17 -38316 13846
18 -204804 216483
19 2414 265203
20 7608 -283321
